Translating instance to solver...

Set parameter TimeLimit to value 28800
Gurobi Optimizer version 11.0.2 build v11.0.2rc0 (linux64 - "Ubuntu 22.04.4 LTS")

CPU model: Intel(R) Xeon(R) Gold 5120 CPU @ 2.20GHz, instruction set [SSE2|AVX|AVX2|AVX512]
Thread count: 28 physical cores, 56 logical processors, using up to 28 threads

Academic license 2463511 - for non-commercial use only - registered to lu___@cefet-rj.br
Optimize a model with 24835 rows, 13713 columns and 58929 nonzeros
Model fingerprint: 0x57db264a
Variable types: 1 continuous, 13712 integer (13680 binary)
Coefficient statistics:
  Matrix range     [1e+00, 1e+05]
  Objective range  [3e-01, 8e-01]
  Bounds range     [1e+00, 3e+01]
  RHS range        [1e+00, 7e+01]
Presolve removed 21476 rows and 12274 columns
Presolve time: 0.28s
Presolved: 3359 rows, 1439 columns, 10983 nonzeros
Variable types: 0 continuous, 1439 integer (1408 binary)

Root relaxation: objective 1.345993e+00, 639 iterations, 0.02 seconds (0.02 work units)

    Nodes    |    Current Node    |     Objective Bounds      |     Work
 Expl Unexpl |  Obj  Depth IntInf | Incumbent    BestBd   Gap | It/Node Time

     0     0    1.34599    0   59          -    1.34599      -     -    0s
H    0     0                       2.5735640    1.34599  47.7%     -    0s
H    0     0                       2.2676730    1.34599  40.6%     -    0s
H    0     0                       1.5117820    1.34599  11.0%     -    0s
     0     0     cutoff    0         1.51178    1.51178  0.00%     -    0s

Cutting planes:
  Gomory: 1
  Implied bound: 17
  Clique: 4
  MIR: 41
  StrongCG: 2
  Zero half: 1
  RLT: 7

Explored 1 nodes (991 simplex iterations) in 0.47 seconds (0.37 work units)
Thread count was 28 (of 56 available processors)

Solution count 3: 1.51178 2.26767 2.57356 

Optimal solution found (tolerance 1.00e-04)
Best objective 1.511782000000e+00, best bound 1.511782000000e+00, gap 0.0000%

Solver Wallclock Time (for this epsilon): 0.47405290603637695 s
Python wallclock Time (for this epsilon): 2.2672152519226074 s


Total Elapsed Time (since program call): 59.21131420135498 s

Results:

I = 1.511782 mA
C = 70.0 points
C ~= 28.0 km^2

Minimum Epsilon for this instance = 10
Maximum Epsilon for this instance = 100

Current Epsilon = 70


Preprocessing Time (for this epsilon): 0.005191802978515625 s


Updated solution vectors:
sol_I = [-0.611782,-1.061782,-1.061782,-1.061782,-1.061782,-1.511782,-1.511782]
sol_C = [12.0,28.0,47.0,47.0,52.0,70.0,70.0]
sol_eps = [10,20,30,40,50,60,70]
sol_gap = [0.0,0.0,0.0,0.0,7.10526315561566e-08,0.0,0.0]
